815
8
127390
9790
 0 1 1 125 198  18 0 92 37 98 100 91 16 86 44 38 14 42 43 15 57 2 58 0
 0 1 1 81 196  15 0 89 60 5 84 45 17 61 85 93 59 99 96 6 0
 0 1 1 40 108  7 0 13 87 97 95 94 0
 0 1 1 104 194  14 0 40 21 72 75 56 39 67 23 41 22 74 73 0
 0 1 1 97 165  14 0 28 12 80 68 29 24 54 55 25 4 26 53 0
 0 1 1 119 199  16 0 76 77 3 79 78 34 35 65 71 9 51 81 33 50 0
 0 1 1 111 199  16 0 27 69 1 70 30 20 66 32 90 63 10 62 88 31 0
 0 1 1 138 199  16 0 18 83 8 46 47 36 49 64 11 19 48 82 7 52 0
